p cnf 10 50
-3 8 10 0
-2 6 3 0
5 -6 8 0
-8 -6 -7 0
8 -6 4 0
-9 -6 -4 0
-1 8 6 0
9 3 4 0
1 6 -7 0
-4 -10 -5 0
-8 -4 6 0
-5 10 -2 0
6 -7 5 0
10 -3 -1 0
8 6 2 0
3 -4 -7 0
-8 9 6 0
-8 -5 -9 0
-6 9 -7 0
-7 -9 -4 0
-4 10 -1 0
5 -7 2 0
1 -8 10 0
-8 5 3 0
6 3 7 0
-9 -1 -2 0
10 -6 -9 0
3 -2 1 0
-6 3 10 0
-5 6 -2 0
-10 -4 -2 0
3 8 10 0
-4 8 -2 0
-2 -8 1 0
2 4 -3 0
-8 3 -7 0
-9 10 3 0
5 -6 10 0
10 5 9 0
7 6 -3 0
7 2 -8 0
3 6 7 0
5 -9 -3 0
-5 -10 -8 0
-9 10 -8 0
10 -1 -5 0
-5 6 -2 0
3 -4 9 0
-7 -9 10 0
3 1 9 0
